5 5
2 58 3 66 1 36 4 2 0 38
1 74 2 14 4 27 3 15 0 85
4 12 2 43 3 97 0 57 1 86
1 48 4 61 0 82 2 44 3 52
3 62 4 2 0 93 2 71 1 31
-1
0 2 3 5
0 1 3 4 5
0 2 3 4 5
0 2 5
0 2 3 5
-2
179 201 281
112 178 190 244
75 238 222 355
152 393
84 232 376

419 7
22 17 13 9 4
15 5 2 24 14
0 11 6 23 18
20 1 12 8 19
21 10 16 7 3
